p cnf 505 2124
46 14 -25 39 -8 0
-7 -23 -13 -30 4 0
10 -21 -42 -45 46 0
24 28 -13 -45 50 0
25 -49 37 -34 -17 0
-1 -26 -42 13 -38 0
-14 28 -8 41 44 0
39 35 44 -30 37 0
7 23 -17 -28 -16 0
-20 -19 27 4 34 0
35 -22 36 -11 -16 0
-46 -13 -42 28 6 0
13 22 48 -23 30 0
22 -6 45 12 41 0
-10 -32 -6 30 -34 0
-16 34 -26 -2 -31 0
-13 22 35 -16 23 0
22 17 46 -5 -45 0
-32 6 -17 -22 -15 0
17 -47 -45 -3 -31 0
-20 7 -28 -11 42 0
31 -1 39 22 19 0
14 -40 -35 -11 9 0
31 -43 -46 28 -25 0
-11 25 -10 -49 12 0
49 -32 42 -44 -22 0
-47 21 -20 -5 27 0
-17 -8 44 -13 -7 0
28 -45 42 3 -26 0
23 -28 26 44 35 0
-18 50 24 -32 -5 0
-36 -41 -46 26 -30 0
20 23 -16 -24 18 0
29 -9 4 49 -38 0
19 -37 48 30 27 0
36 33 21 18 -45 0
-19 33 -23 -14 4 0
1 -30 -21 -43 -48 0
40 -21 -32 1 49 0
37 -19 -26 47 -2 0
40 -42 -7 -31 -12 0
46 22 40 38 -11 0
-41 -25 -21 44 -14 0
-4 43 -32 -47 -44 0
-49 -29 -1 -24 -41 0
-27 -17 -10 -36 -35 0
-45 -23 50 -2 -21 0
5 -14 -9 -2 -49 0
-11 35 5 3 44 0
35 6 -46 34 -10 0
-39 11 -44 -34 47 0
32 50 -27 -36 -45 0
48 -18 31 -26 -22 0
28 -10 -46 -47 -8 0
2 40 6 41 46 0
42 -46 -31 18 -32 0
35 31 -8 49 -45 0
16 -33 30 46 4 0
47 32 -16 -46 -26 0
16 41 -24 -28 49 0
44 49 35 29 17 0
-34 42 -35 40 36 0
-49 -28 46 -45 40 0
-34 40 35 5 -3 0
-23 -37 -44 -45 -13 0
-23 -46 24 37 6 0
12 -49 46 -48 -47 0
-11 42 -3 -45 -13 0
-4 20 -2 -35 -11 0
29 39 -18 49 -23 0
9 28 22 -7 47 0
27 -45 -20 28 -29 0
-19 40 -22 -18 27 0
-8 28 19 -50 24 0
2 40 23 -29 -3 0
7 -13 -16 25 -26 0
15 21 13 -9 -36 0
28 -46 -48 20 -41 0
16 9 23 -12 7 0
-41 -17 34 4 -48 0
3 -49 50 -7 -28 0
-11 -31 -26 16 -27 0
14 -22 -32 20 23 0
23 -10 -11 17 -32 0
-21 6 -33 13 -45 0
-26 -20 25 31 38 0
-12 -28 -35 -37 -2 0
38 29 -47 37 20 0
-45 44 50 -40 36 0
-50 47 -36 -3 -31 0
26 -48 21 -41 13 0
-44 42 27 26 46 0
-28 37 -49 -30 -24 0
-48 47 -29 -46 39 0
16 29 38 -1 10 0
-33 31 35 44 24 0
-12 -50 30 -27 -23 0
29 45 25 -14 7 0
17 16 9 -8 -21 0
1 -5 2 44 -19 0
-24 -42 -48 -36 15 0
21 -34 30 41 12 0
44 6 -14 -41 15 0
9 29 -14 16 -11 0
19 -16 1 12 -44 0
-39 -42 43 38 5 0
-40 38 -13 -48 34 0
-19 -20 -13 -30 -34 0
20 -10 8 21 46 0
11 -18 43 -4 42 0
2 -25 49 28 -21 0
-2 -11 14 50 -44 0
4 -5 -47 48 40 0
46 30 -44 15 -13 0
50 40 -4 25 -36 0
-34 -36 -42 20 -15 0
49 -7 21 47 -41 0
-32 29 -1 44 -14 0
14 -1 24 3 -47 0
-10 2 -11 -45 -48 0
-47 -44 15 -40 27 0
-37 13 36 -1 31 0
-12 4 42 -23 -26 0
-39 45 -8 36 22 0
46 9 4 -28 47 0
11 10 25 2 -48 0
8 4 20 31 2 0
-47 5 -2 -34 -31 0
-6 8 -23 4 -29 0
26 -34 2 -29 48 0
7 40 -18 -39 34 0
-16 -17 -43 26 -33 0
-25 -27 -7 -34 5 0
-10 46 35 -2 11 0
-48 -13 11 10 37 0
-43 -28 27 -32 -39 0
8 13 -17 24 33 0
-13 -38 -39 -20 -4 0
-1 -10 -9 -40 15 0
44 19 42 -38 -8 0
-45 43 -26 -3 -22 0
35 -19 34 -23 4 0
7 -9 -20 -35 13 0
-46 49 -25 1 -12 0
-15 24 -36 50 12 0
-15 27 -23 -10 37 0
38 -9 -49 -24 -31 0
-42 -21 -18 -49 33 0
-34 -26 32 -17 -38 0
-2 -14 -24 -48 29 0
-30 17 5 36 3 0
-30 -12 -40 19 43 0
-48 20 -12 -1 -46 0
41 -1 -40 -32 30 0
-25 36 45 -12 33 0
-16 -27 -46 -1 -31 0
50 -6 4 33 -27 0
-38 27 -25 -8 -35 0
32 3 -47 37 25 0
-50 19 25 27 47 0
-19 18 -39 40 -24 0
-32 2 13 -10 17 0
-5 45 28 -38 7 0
41 -14 -47 12 -29 0
1 -28 -5 20 3 0
27 20 -34 -10 43 0
-27 12 16 41 -49 0
31 -8 -20 -32 -24 0
-38 -49 -10 25 -47 0
31 -41 -30 -23 2 0
-45 36 -24 13 16 0
-30 -35 -17 -32 -15 0
6 -3 -40 -20 41 0
34 -8 -1 -4 31 0
33 -5 17 -45 -47 0
35 -30 14 -19 20 0
-50 -34 -16 -22 49 0
32 2 -29 -18 -6 0
8 -37 30 47 -20 0
14 4 30 -23 42 0
-3 -37 31 16 -12 0
-35 25 -37 -1 -32 0
47 -26 -33 44 -12 0
-19 -21 33 1 -32 0
-50 6 9 -42 -15 0
-42 48 5 39 -46 0
-46 -21 -49 -42 -34 0
24 -45 12 1 -4 0
-12 8 -7 21 23 0
18 -37 -19 -6 -16 0
33 13 -23 14 49 0
-22 17 -18 3 44 0
-18 -16 -22 40 -25 0
-40 -39 26 18 47 0
15 35 -12 -42 48 0
4 18 -36 24 -5 0
50 14 -25 8 -21 0
-40 -38 1 -31 47 0
-22 -8 -13 -43 38 0
13 46 30 39 -32 0
-19 -33 47 -46 -50 0
-2 26 27 -25 -36 0
26 -38 18 -34 -20 0
-18 -24 8 44 -37 0
-42 -26 -41 27 35 0
33 29 37 -4 27 0
42 49 -4 -7 -1 0
-1 35 -39 -7 34 0
-20 -6 48 -39 -24 0
-32 -15 37 -17 34 0
-12 -13 -39 -20 -28 0
-41 -5 -36 6 -10 0
-37 -34 6 -10 -26 0
7 12 33 -30 44 0
47 -26 -24 -32 13 0
39 4 -17 41 -37 0
-34 30 42 -14 -6 0
-34 36 -24 -22 23 0
-1 -17 -19 36 -25 0
-38 -48 -5 -33 27 0
31 -42 -47 -23 4 0
11 24 28 -49 29 0
39 -6 14 -15 8 0
50 29 33 20 17 0
-9 43 37 44 42 0
-44 18 16 -36 -37 0
32 40 37 15 -3 0
-33 -32 40 46 -6 0
29 14 11 -28 5 0
-34 33 38 -22 -31 0
-9 23 -31 -50 -13 0
-36 -49 20 34 21 0
13 8 -9 -20 -44 0
15 -25 42 5 48 0
24 -14 49 -8 42 0
-15 26 46 45 -2 0
50 29 -41 -2 -15 0
30 -23 24 -6 28 0
-35 33 -18 -22 -4 0
32 34 43 -13 -10 0
38 7 26 50 25 0
-5 4 7 -46 29 0
-49 -5 -45 17 21 0
18 -13 40 -24 17 0
21 23 -34 -43 -46 0
18 7 -3 32 38 0
30 -22 -26 -41 11 0
2 -37 -42 -46 -24 0
-17 49 20 -19 -35 0
-40 -34 3 20 -14 0
1 3 51 0
-1 3 -51 0
1 -3 -51 0
-1 -3 51 0
-4 6 52 0
4 6 -52 0
-4 -6 -52 0
4 -6 52 0
8 9 53 0
-8 9 -53 0
8 -9 -53 0
-8 -9 53 0
13 15 54 0
-13 15 -54 0
13 -15 -54 0
-13 -15 54 0
-16 -17 55 0
16 -17 -55 0
-16 17 -55 0
16 17 55 0
18 -27 56 0
-18 -27 -56 0
18 27 -56 0
-18 27 56 0
-31 32 57 0
31 32 -57 0
-31 -32 -57 0
31 -32 57 0
35 36 58 0
-35 36 -58 0
35 -36 -58 0
-35 -36 58 0
37 -40 59 0
-37 -40 -59 0
37 40 -59 0
-37 40 59 0
-41 46 60 0
41 46 -60 0
-41 -46 -60 0
41 -46 60 0
51 -52 61 0
-51 -52 -61 0
51 52 -61 0
-51 52 61 0
53 -54 62 0
-53 -54 -62 0
53 54 -62 0
-53 54 62 0
55 -56 63 0
-55 -56 -63 0
55 56 -63 0
-55 56 63 0
57 -58 64 0
-57 -58 -64 0
57 58 -64 0
-57 58 64 0
59 -60 65 0
-59 -60 -65 0
59 60 -65 0
-59 60 65 0
61 -62 66 0
-61 -62 -66 0
61 62 -66 0
-61 62 66 0
63 -64 67 0
-63 -64 -67 0
63 64 -67 0
-63 64 67 0
-65 -66 67 0
65 -66 -67 0
-65 66 -67 0
65 66 67 0
1 -6 68 0
-1 -6 -68 0
1 6 -68 0
-1 6 68 0
-7 9 69 0
7 9 -69 0
-7 -9 -69 0
7 -9 69 0
11 13 70 0
-11 13 -70 0
11 -13 -70 0
-11 -13 70 0
16 -19 71 0
-16 -19 -71 0
16 19 -71 0
-16 19 71 0
20 -21 72 0
-20 -21 -72 0
20 21 -72 0
-20 21 72 0
22 26 73 0
-22 26 -73 0
22 -26 -73 0
-22 -26 73 0
-27 28 74 0
27 28 -74 0
-27 -28 -74 0
27 -28 74 0
32 33 75 0
-32 33 -75 0
32 -33 -75 0
-32 -33 75 0
35 38 76 0
-35 38 -76 0
35 -38 -76 0
-35 -38 76 0
-40 42 77 0
40 42 -77 0
-40 -42 -77 0
40 -42 77 0
-44 45 78 0
44 45 -78 0
-44 -45 -78 0
44 -45 78 0
-47 -48 79 0
47 -48 -79 0
-47 48 -79 0
47 48 79 0
67 -68 80 0
-67 -68 -80 0
67 68 -80 0
-67 68 80 0
69 -70 81 0
-69 -70 -81 0
69 70 -81 0
-69 70 81 0
71 -72 82 0
-71 -72 -82 0
71 72 -82 0
-71 72 82 0
73 -74 83 0
-73 -74 -83 0
73 74 -83 0
-73 74 83 0
75 -76 84 0
-75 -76 -84 0
75 76 -84 0
-75 76 84 0
77 -78 85 0
-77 -78 -85 0
77 78 -85 0
-77 78 85 0
79 -80 86 0
-79 -80 -86 0
79 80 -86 0
-79 80 86 0
81 -82 87 0
-81 -82 -87 0
81 82 -87 0
-81 82 87 0
83 -84 88 0
-83 -84 -88 0
83 84 -88 0
-83 84 88 0
85 -86 89 0
-85 -86 -89 0
85 86 -89 0
-85 86 89 0
87 -88 90 0
-87 -88 -90 0
87 88 -90 0
-87 88 90 0
89 90 0
-89 -90 0
-2 -3 91 0
2 -3 -91 0
-2 3 -91 0
2 3 91 0
-5 7 92 0
5 7 -92 0
-5 -7 -92 0
5 -7 92 0
9 10 93 0
-9 10 -93 0
9 -10 -93 0
-9 -10 93 0
11 -12 94 0
-11 -12 -94 0
11 12 -94 0
-11 12 94 0
13 14 95 0
-13 14 -95 0
13 -14 -95 0
-13 -14 95 0
15 -17 96 0
-15 -17 -96 0
15 17 -96 0
-15 17 96 0
-18 19 97 0
18 19 -97 0
-18 -19 -97 0
18 -19 97 0
24 25 98 0
-24 25 -98 0
24 -25 -98 0
-24 -25 98 0
26 -27 99 0
-26 -27 -99 0
26 27 -99 0
-26 27 99 0
-28 30 100 0
28 30 -100 0
-28 -30 -100 0
28 -30 100 0
-31 -35 101 0
31 -35 -101 0
-31 35 -101 0
31 35 101 0
-36 40 102 0
36 40 -102 0
-36 -40 -102 0
36 -40 102 0
-41 -42 103 0
41 -42 -103 0
-41 42 -103 0
41 42 103 0
46 -48 104 0
-46 -48 -104 0
46 48 -104 0
-46 48 104 0
91 -92 105 0
-91 -92 -105 0
91 92 -105 0
-91 92 105 0
93 -94 106 0
-93 -94 -106 0
93 94 -106 0
-93 94 106 0
95 -96 107 0
-95 -96 -107 0
95 96 -107 0
-95 96 107 0
97 -98 108 0
-97 -98 -108 0
97 98 -108 0
-97 98 108 0
99 -100 109 0
-99 -100 -109 0
99 100 -109 0
-99 100 109 0
101 -102 110 0
-101 -102 -110 0
101 102 -110 0
-101 102 110 0
103 -104 111 0
-103 -104 -111 0
103 104 -111 0
-103 104 111 0
105 -106 112 0
-105 -106 -112 0
105 106 -112 0
-105 106 112 0
107 -108 113 0
-107 -108 -113 0
107 108 -113 0
-107 108 113 0
109 -110 114 0
-109 -110 -114 0
109 110 -114 0
-109 110 114 0
111 -112 115 0
-111 -112 -115 0
111 112 -115 0
-111 112 115 0
113 -114 116 0
-113 -114 -116 0
113 114 -116 0
-113 114 116 0
115 116 0
-115 -116 0
-2 4 117 0
2 4 -117 0
-2 -4 -117 0
2 -4 117 0
5 -6 118 0
-5 -6 -118 0
5 6 -118 0
-5 6 118 0
17 23 119 0
-17 23 -119 0
17 -23 -119 0
-17 -23 119 0
-25 -27 120 0
25 -27 -120 0
-25 27 -120 0
25 27 120 0
28 -29 121 0
-28 -29 -121 0
28 29 -121 0
-28 29 121 0
-30 33 122 0
30 33 -122 0
-30 -33 -122 0
30 -33 122 0
-34 35 123 0
34 35 -123 0
-34 -35 -123 0
34 -35 123 0
-37 -44 124 0
37 -44 -124 0
-37 44 -124 0
37 44 124 0
117 -118 125 0
-117 -118 -125 0
117 118 -125 0
-117 118 125 0
119 -120 126 0
-119 -120 -126 0
119 120 -126 0
-119 120 126 0
121 -122 127 0
-121 -122 -127 0
121 122 -127 0
-121 122 127 0
123 -124 128 0
-123 -124 -128 0
123 124 -128 0
-123 124 128 0
125 -126 129 0
-125 -126 -129 0
125 126 -129 0
-125 126 129 0
127 -128 130 0
-127 -128 -130 0
127 128 -130 0
-127 128 130 0
129 130 0
-129 -130 0
-1 4 131 0
1 4 -131 0
-1 -4 -131 0
1 -4 131 0
5 6 132 0
-5 6 -132 0
5 -6 -132 0
-5 -6 132 0
-7 -12 133 0
7 -12 -133 0
-7 12 -133 0
7 12 133 0
-13 15 134 0
13 15 -134 0
-13 -15 -134 0
13 -15 134 0
-20 21 135 0
20 21 -135 0
-20 -21 -135 0
20 -21 135 0
24 25 136 0
-24 25 -136 0
24 -25 -136 0
-24 -25 136 0
26 28 137 0
-26 28 -137 0
26 -28 -137 0
-26 -28 137 0
30 -34 138 0
-30 -34 -138 0
30 34 -138 0
-30 34 138 0
35 -36 139 0
-35 -36 -139 0
35 36 -139 0
-35 36 139 0
-37 39 140 0
37 39 -140 0
-37 -39 -140 0
37 -39 140 0
40 42 141 0
-40 42 -141 0
40 -42 -141 0
-40 -42 141 0
45 -46 142 0
-45 -46 -142 0
45 46 -142 0
-45 46 142 0
48 49 143 0
-48 49 -143 0
48 -49 -143 0
-48 -49 143 0
130 -131 144 0
-130 -131 -144 0
130 131 -144 0
-130 131 144 0
132 -133 145 0
-132 -133 -145 0
132 133 -145 0
-132 133 145 0
134 -135 146 0
-134 -135 -146 0
134 135 -146 0
-134 135 146 0
136 -137 147 0
-136 -137 -147 0
136 137 -147 0
-136 137 147 0
138 -139 148 0
-138 -139 -148 0
138 139 -148 0
-138 139 148 0
140 -141 149 0
-140 -141 -149 0
140 141 -149 0
-140 141 149 0
142 -143 150 0
-142 -143 -150 0
142 143 -150 0
-142 143 150 0
144 -145 151 0
-144 -145 -151 0
144 145 -151 0
-144 145 151 0
146 -147 152 0
-146 -147 -152 0
146 147 -152 0
-146 147 152 0
148 -149 153 0
-148 -149 -153 0
148 149 -153 0
-148 149 153 0
150 -151 154 0
-150 -151 -154 0
150 151 -154 0
-150 151 154 0
152 -153 155 0
-152 -153 -155 0
152 153 -155 0
-152 153 155 0
154 155 0
-154 -155 0
-1 3 156 0
1 3 -156 0
-1 -3 -156 0
1 -3 156 0
-4 5 157 0
4 5 -157 0
-4 -5 -157 0
4 -5 157 0
-6 -7 158 0
6 -7 -158 0
-6 7 -158 0
6 7 158 0
9 12 159 0
-9 12 -159 0
9 -12 -159 0
-9 -12 159 0
15 17 160 0
-15 17 -160 0
15 -17 -160 0
-15 -17 160 0
18 -20 161 0
-18 -20 -161 0
18 20 -161 0
-18 20 161 0
-23 25 162 0
23 25 -162 0
-23 -25 -162 0
23 -25 162 0
-35 36 163 0
35 36 -163 0
-35 -36 -163 0
35 -36 163 0
-38 -42 164 0
38 -42 -164 0
-38 42 -164 0
38 42 164 0
44 45 165 0
-44 45 -165 0
44 -45 -165 0
-44 -45 165 0
48 50 166 0
-48 50 -166 0
48 -50 -166 0
-48 -50 166 0
156 -157 167 0
-156 -157 -167 0
156 157 -167 0
-156 157 167 0
158 -159 168 0
-158 -159 -168 0
158 159 -168 0
-158 159 168 0
160 -161 169 0
-160 -161 -169 0
160 161 -169 0
-160 161 169 0
162 -163 170 0
-162 -163 -170 0
162 163 -170 0
-162 163 170 0
164 -165 171 0
-164 -165 -171 0
164 165 -171 0
-164 165 171 0
166 -167 172 0
-166 -167 -172 0
166 167 -172 0
-166 167 172 0
168 -169 173 0
-168 -169 -173 0
168 169 -173 0
-168 169 173 0
170 -171 174 0
-170 -171 -174 0
170 171 -174 0
-170 171 174 0
-172 -173 174 0
172 -173 -174 0
-172 173 -174 0
172 173 174 0
4 5 175 0
-4 5 -175 0
4 -5 -175 0
-4 -5 175 0
6 -8 176 0
-6 -8 -176 0
6 8 -176 0
-6 8 176 0
9 -10 177 0
-9 -10 -177 0
9 10 -177 0
-9 10 177 0
-11 13 178 0
11 13 -178 0
-11 -13 -178 0
11 -13 178 0
14 -15 179 0
-14 -15 -179 0
14 15 -179 0
-14 15 179 0
16 -17 180 0
-16 -17 -180 0
16 17 -180 0
-16 17 180 0
-18 19 181 0
18 19 -181 0
-18 -19 -181 0
18 -19 181 0
-23 24 182 0
23 24 -182 0
-23 -24 -182 0
23 -24 182 0
-25 27 183 0
25 27 -183 0
-25 -27 -183 0
25 -27 183 0
-33 -34 184 0
33 -34 -184 0
-33 34 -184 0
33 34 184 0
-37 -39 185 0
37 -39 -185 0
-37 39 -185 0
37 39 185 0
-41 42 186 0
41 42 -186 0
-41 -42 -186 0
41 -42 186 0
-46 47 187 0
46 47 -187 0
-46 -47 -187 0
46 -47 187 0
174 -175 188 0
-174 -175 -188 0
174 175 -188 0
-174 175 188 0
176 -177 189 0
-176 -177 -189 0
176 177 -189 0
-176 177 189 0
178 -179 190 0
-178 -179 -190 0
178 179 -190 0
-178 179 190 0
180 -181 191 0
-180 -181 -191 0
180 181 -191 0
-180 181 191 0
182 -183 192 0
-182 -183 -192 0
182 183 -192 0
-182 183 192 0
184 -185 193 0
-184 -185 -193 0
184 185 -193 0
-184 185 193 0
186 -187 194 0
-186 -187 -194 0
186 187 -194 0
-186 187 194 0
188 -189 195 0
-188 -189 -195 0
188 189 -195 0
-188 189 195 0
190 -191 196 0
-190 -191 -196 0
190 191 -196 0
-190 191 196 0
192 -193 197 0
-192 -193 -197 0
192 193 -197 0
-192 193 197 0
194 -195 198 0
-194 -195 -198 0
194 195 -198 0
-194 195 198 0
196 -197 199 0
-196 -197 -199 0
196 197 -199 0
-196 197 199 0
198 199 0
-198 -199 0
3 -4 200 0
-3 -4 -200 0
3 4 -200 0
-3 4 200 0
7 9 201 0
-7 9 -201 0
7 -9 -201 0
-7 -9 201 0
10 11 202 0
-10 11 -202 0
10 -11 -202 0
-10 -11 202 0
14 -15 203 0
-14 -15 -203 0
14 15 -203 0
-14 15 203 0
-19 21 204 0
19 21 -204 0
-19 -21 -204 0
19 -21 204 0
25 26 205 0
-25 26 -205 0
25 -26 -205 0
-25 -26 205 0
28 -31 206 0
-28 -31 -206 0
28 31 -206 0
-28 31 206 0
-32 -33 207 0
32 -33 -207 0
-32 33 -207 0
32 33 207 0
-34 36 208 0
34 36 -208 0
-34 -36 -208 0
34 -36 208 0
-37 -42 209 0
37 -42 -209 0
-37 42 -209 0
37 42 209 0
-43 -44 210 0
43 -44 -210 0
-43 44 -210 0
43 44 210 0
-47 -48 211 0
47 -48 -211 0
-47 48 -211 0
47 48 211 0
199 -200 212 0
-199 -200 -212 0
199 200 -212 0
-199 200 212 0
201 -202 213 0
-201 -202 -213 0
201 202 -213 0
-201 202 213 0
203 -204 214 0
-203 -204 -214 0
203 204 -214 0
-203 204 214 0
205 -206 215 0
-205 -206 -215 0
205 206 -215 0
-205 206 215 0
207 -208 216 0
-207 -208 -216 0
207 208 -216 0
-207 208 216 0
209 -210 217 0
-209 -210 -217 0
209 210 -217 0
-209 210 217 0
211 -212 218 0
-211 -212 -218 0
211 212 -218 0
-211 212 218 0
213 -214 219 0
-213 -214 -219 0
213 214 -219 0
-213 214 219 0
215 -216 220 0
-215 -216 -220 0
215 216 -220 0
-215 216 220 0
217 -218 221 0
-217 -218 -221 0
217 218 -221 0
-217 218 221 0
219 -220 222 0
-219 -220 -222 0
219 220 -222 0
-219 220 222 0
221 222 0
-221 -222 0
2 4 223 0
-2 4 -223 0
2 -4 -223 0
-2 -4 223 0
-6 -13 224 0
6 -13 -224 0
-6 13 -224 0
6 13 224 0
-16 -18 225 0
16 -18 -225 0
-16 18 -225 0
16 18 225 0
-19 20 226 0
19 20 -226 0
-19 -20 -226 0
19 -20 226 0
-21 -25 227 0
21 -25 -227 0
-21 25 -227 0
21 25 227 0
-27 32 228 0
27 32 -228 0
-27 -32 -228 0
27 -32 228 0
35 -36 229 0
-35 -36 -229 0
35 36 -229 0
-35 36 229 0
38 39 230 0
-38 39 -230 0
38 -39 -230 0
-38 -39 230 0
42 -44 231 0
-42 -44 -231 0
42 44 -231 0
-42 44 231 0
223 -224 232 0
-223 -224 -232 0
223 224 -232 0
-223 224 232 0
225 -226 233 0
-225 -226 -233 0
225 226 -233 0
-225 226 233 0
227 -228 234 0
-227 -228 -234 0
227 228 -234 0
-227 228 234 0
229 -230 235 0
-229 -230 -235 0
229 230 -235 0
-229 230 235 0
231 -232 236 0
-231 -232 -236 0
231 232 -236 0
-231 232 236 0
233 -234 237 0
-233 -234 -237 0
233 234 -237 0
-233 234 237 0
-235 -236 237 0
235 -236 -237 0
-235 236 -237 0
235 236 237 0
1 -2 238 0
-1 -2 -238 0
1 2 -238 0
-1 2 238 0
3 4 239 0
-3 4 -239 0
3 -4 -239 0
-3 -4 239 0
-5 -7 240 0
5 -7 -240 0
-5 7 -240 0
5 7 240 0
-8 -9 241 0
8 -9 -241 0
-8 9 -241 0
8 9 241 0
-12 13 242 0
12 13 -242 0
-12 -13 -242 0
12 -13 242 0
15 16 243 0
-15 16 -243 0
15 -16 -243 0
-15 -16 243 0
19 -24 244 0
-19 -24 -244 0
19 24 -244 0
-19 24 244 0
-28 29 245 0
28 29 -245 0
-28 -29 -245 0
28 -29 245 0
32 -33 246 0
-32 -33 -246 0
32 33 -246 0
-32 33 246 0
34 38 247 0
-34 38 -247 0
34 -38 -247 0
-34 -38 247 0
39 40 248 0
-39 40 -248 0
39 -40 -248 0
-39 -40 248 0
-43 46 249 0
43 46 -249 0
-43 -46 -249 0
43 -46 249 0
238 -239 250 0
-238 -239 -250 0
238 239 -250 0
-238 239 250 0
240 -241 251 0
-240 -241 -251 0
240 241 -251 0
-240 241 251 0
242 -243 252 0
-242 -243 -252 0
242 243 -252 0
-242 243 252 0
244 -245 253 0
-244 -245 -253 0
244 245 -253 0
-244 245 253 0
246 -247 254 0
-246 -247 -254 0
246 247 -254 0
-246 247 254 0
248 -249 255 0
-248 -249 -255 0
248 249 -255 0
-248 249 255 0
250 -251 256 0
-250 -251 -256 0
250 251 -256 0
-250 251 256 0
252 -253 257 0
-252 -253 -257 0
252 253 -257 0
-252 253 257 0
254 -255 258 0
-254 -255 -258 0
254 255 -258 0
-254 255 258 0
-256 -257 258 0
256 -257 -258 0
-256 257 -258 0
256 257 258 0
1 2 259 0
-1 2 -259 0
1 -2 -259 0
-1 -2 259 0
4 5 260 0
-4 5 -260 0
4 -5 -260 0
-4 -5 260 0
-6 8 261 0
6 8 -261 0
-6 -8 -261 0
6 -8 261 0
-9 -10 262 0
9 -10 -262 0
-9 10 -262 0
9 10 262 0
-11 -13 263 0
11 -13 -263 0
-11 13 -263 0
11 13 263 0
15 -16 264 0
-15 -16 -264 0
15 16 -264 0
-15 16 264 0
17 -19 265 0
-17 -19 -265 0
17 19 -265 0
-17 19 265 0
21 -23 266 0
-21 -23 -266 0
21 23 -266 0
-21 23 266 0
-24 -25 267 0
24 -25 -267 0
-24 25 -267 0
24 25 267 0
-26 -27 268 0
26 -27 -268 0
-26 27 -268 0
26 27 268 0
-32 35 269 0
32 35 -269 0
-32 -35 -269 0
32 -35 269 0
36 37 270 0
-36 37 -270 0
36 -37 -270 0
-36 -37 270 0
-39 41 271 0
39 41 -271 0
-39 -41 -271 0
39 -41 271 0
43 -46 272 0
-43 -46 -272 0
43 46 -272 0
-43 46 272 0
-48 -50 273 0
48 -50 -273 0
-48 50 -273 0
48 50 273 0
259 -260 274 0
-259 -260 -274 0
259 260 -274 0
-259 260 274 0
261 -262 275 0
-261 -262 -275 0
261 262 -275 0
-261 262 275 0
263 -264 276 0
-263 -264 -276 0
263 264 -276 0
-263 264 276 0
265 -266 277 0
-265 -266 -277 0
265 266 -277 0
-265 266 277 0
267 -268 278 0
-267 -268 -278 0
267 268 -278 0
-267 268 278 0
269 -270 279 0
-269 -270 -279 0
269 270 -279 0
-269 270 279 0
271 -272 280 0
-271 -272 -280 0
271 272 -280 0
-271 272 280 0
273 -274 281 0
-273 -274 -281 0
273 274 -281 0
-273 274 281 0
275 -276 282 0
-275 -276 -282 0
275 276 -282 0
-275 276 282 0
277 -278 283 0
-277 -278 -283 0
277 278 -283 0
-277 278 283 0
279 -280 284 0
-279 -280 -284 0
279 280 -284 0
-279 280 284 0
281 -282 285 0
-281 -282 -285 0
281 282 -285 0
-281 282 285 0
283 -284 286 0
-283 -284 -286 0
283 284 -286 0
-283 284 286 0
285 286 0
-285 -286 0
-4 -5 287 0
4 -5 -287 0
-4 5 -287 0
4 5 287 0
9 10 288 0
-9 10 -288 0
9 -10 -288 0
-9 -10 288 0
19 20 289 0
-19 20 -289 0
19 -20 -289 0
-19 -20 289 0
-21 24 290 0
21 24 -290 0
-21 -24 -290 0
21 -24 290 0
25 26 291 0
-25 26 -291 0
25 -26 -291 0
-25 -26 291 0
-28 30 292 0
28 30 -292 0
-28 -30 -292 0
28 -30 292 0
33 -34 293 0
-33 -34 -293 0
33 34 -293 0
-33 34 293 0
-35 -36 294 0
35 -36 -294 0
-35 36 -294 0
35 36 294 0
-37 38 295 0
37 38 -295 0
-37 -38 -295 0
37 -38 295 0
40 41 296 0
-40 41 -296 0
40 -41 -296 0
-40 -41 296 0
42 -44 297 0
-42 -44 -297 0
42 44 -297 0
-42 44 297 0
45 46 298 0
-45 46 -298 0
45 -46 -298 0
-45 -46 298 0
-48 -49 299 0
48 -49 -299 0
-48 49 -299 0
48 49 299 0
286 -287 300 0
-286 -287 -300 0
286 287 -300 0
-286 287 300 0
288 -289 301 0
-288 -289 -301 0
288 289 -301 0
-288 289 301 0
290 -291 302 0
-290 -291 -302 0
290 291 -302 0
-290 291 302 0
292 -293 303 0
-292 -293 -303 0
292 293 -303 0
-292 293 303 0
294 -295 304 0
-294 -295 -304 0
294 295 -304 0
-294 295 304 0
296 -297 305 0
-296 -297 -305 0
296 297 -305 0
-296 297 305 0
298 -299 306 0
-298 -299 -306 0
298 299 -306 0
-298 299 306 0
300 -301 307 0
-300 -301 -307 0
300 301 -307 0
-300 301 307 0
302 -303 308 0
-302 -303 -308 0
302 303 -308 0
-302 303 308 0
304 -305 309 0
-304 -305 -309 0
304 305 -309 0
-304 305 309 0
306 -307 310 0
-306 -307 -310 0
306 307 -310 0
-306 307 310 0
308 -309 311 0
-308 -309 -311 0
308 309 -311 0
-308 309 311 0
310 311 0
-310 -311 0
1 -2 312 0
-1 -2 -312 0
1 2 -312 0
-1 2 312 0
5 -8 313 0
-5 -8 -313 0
5 8 -313 0
-5 8 313 0
-9 -11 314 0
9 -11 -314 0
-9 11 -314 0
9 11 314 0
-12 -13 315 0
12 -13 -315 0
-12 13 -315 0
12 13 315 0
14 -17 316 0
-14 -17 -316 0
14 17 -316 0
-14 17 316 0
18 -20 317 0
-18 -20 -317 0
18 20 -317 0
-18 20 317 0
22 24 318 0
-22 24 -318 0
22 -24 -318 0
-22 -24 318 0
-28 -29 319 0
28 -29 -319 0
-28 29 -319 0
28 29 319 0
30 -31 320 0
-30 -31 -320 0
30 31 -320 0
-30 31 320 0
36 -41 321 0
-36 -41 -321 0
36 41 -321 0
-36 41 321 0
42 -45 322 0
-42 -45 -322 0
42 45 -322 0
-42 45 322 0
-46 -48 323 0
46 -48 -323 0
-46 48 -323 0
46 48 323 0
49 50 324 0
-49 50 -324 0
49 -50 -324 0
-49 -50 324 0
312 -313 325 0
-312 -313 -325 0
312 313 -325 0
-312 313 325 0
314 -315 326 0
-314 -315 -326 0
314 315 -326 0
-314 315 326 0
316 -317 327 0
-316 -317 -327 0
316 317 -327 0
-316 317 327 0
318 -319 328 0
-318 -319 -328 0
318 319 -328 0
-318 319 328 0
320 -321 329 0
-320 -321 -329 0
320 321 -329 0
-320 321 329 0
322 -323 330 0
-322 -323 -330 0
322 323 -330 0
-322 323 330 0
324 -325 331 0
-324 -325 -331 0
324 325 -331 0
-324 325 331 0
326 -327 332 0
-326 -327 -332 0
326 327 -332 0
-326 327 332 0
328 -329 333 0
-328 -329 -333 0
328 329 -333 0
-328 329 333 0
330 -331 334 0
-330 -331 -334 0
330 331 -334 0
-330 331 334 0
332 -333 335 0
-332 -333 -335 0
332 333 -335 0
-332 333 335 0
334 335 0
-334 -335 0
1 -2 336 0
-1 -2 -336 0
1 2 -336 0
-1 2 336 0
6 7 337 0
-6 7 -337 0
6 -7 -337 0
-6 -7 337 0
-8 9 338 0
8 9 -338 0
-8 -9 -338 0
8 -9 338 0
-10 -11 339 0
10 -11 -339 0
-10 11 -339 0
10 11 339 0
13 15 340 0
-13 15 -340 0
13 -15 -340 0
-13 -15 340 0
-18 -20 341 0
18 -20 -341 0
-18 20 -341 0
18 20 341 0
21 -22 342 0
-21 -22 -342 0
21 22 -342 0
-21 22 342 0
-23 -24 343 0
23 -24 -343 0
-23 24 -343 0
23 24 343 0
26 -27 344 0
-26 -27 -344 0
26 27 -344 0
-26 27 344 0
-28 29 345 0
28 29 -345 0
-28 -29 -345 0
28 -29 345 0
-30 32 346 0
30 32 -346 0
-30 -32 -346 0
30 -32 346 0
34 -35 347 0
-34 -35 -347 0
34 35 -347 0
-34 35 347 0
-36 -38 348 0
36 -38 -348 0
-36 38 -348 0
36 38 348 0
-39 40 349 0
39 40 -349 0
-39 -40 -349 0
39 -40 349 0
41 45 350 0
-41 45 -350 0
41 -45 -350 0
-41 -45 350 0
336 -337 351 0
-336 -337 -351 0
336 337 -351 0
-336 337 351 0
338 -339 352 0
-338 -339 -352 0
338 339 -352 0
-338 339 352 0
340 -341 353 0
-340 -341 -353 0
340 341 -353 0
-340 341 353 0
342 -343 354 0
-342 -343 -354 0
342 343 -354 0
-342 343 354 0
344 -345 355 0
-344 -345 -355 0
344 345 -355 0
-344 345 355 0
346 -347 356 0
-346 -347 -356 0
346 347 -356 0
-346 347 356 0
348 -349 357 0
-348 -349 -357 0
348 349 -357 0
-348 349 357 0
350 -351 358 0
-350 -351 -358 0
350 351 -358 0
-350 351 358 0
352 -353 359 0
-352 -353 -359 0
352 353 -359 0
-352 353 359 0
354 -355 360 0
-354 -355 -360 0
354 355 -360 0
-354 355 360 0
356 -357 361 0
-356 -357 -361 0
356 357 -361 0
-356 357 361 0
358 -359 362 0
-358 -359 -362 0
358 359 -362 0
-358 359 362 0
360 -361 363 0
-360 -361 -363 0
360 361 -363 0
-360 361 363 0
362 363 0
-362 -363 0
3 -5 364 0
-3 -5 -364 0
3 5 -364 0
-3 5 364 0
-7 9 365 0
7 9 -365 0
-7 -9 -365 0
7 -9 365 0
-10 13 366 0
10 13 -366 0
-10 -13 -366 0
10 -13 366 0
14 15 367 0
-14 15 -367 0
14 -15 -367 0
-14 -15 367 0
16 19 368 0
-16 19 -368 0
16 -19 -368 0
-16 -19 368 0
-20 -22 369 0
20 -22 -369 0
-20 22 -369 0
20 22 369 0
25 26 370 0
-25 26 -370 0
25 -26 -370 0
-25 -26 370 0
-27 -28 371 0
27 -28 -371 0
-27 28 -371 0
27 28 371 0
30 31 372 0
-30 31 -372 0
30 -31 -372 0
-30 -31 372 0
32 34 373 0
-32 34 -373 0
32 -34 -373 0
-32 -34 373 0
-36 -38 374 0
36 -38 -374 0
-36 38 -374 0
36 38 374 0
39 -40 375 0
-39 -40 -375 0
39 40 -375 0
-39 40 375 0
-41 43 376 0
41 43 -376 0
-41 -43 -376 0
41 -43 376 0
44 45 377 0
-44 45 -377 0
44 -45 -377 0
-44 -45 377 0
48 49 378 0
-48 49 -378 0
48 -49 -378 0
-48 -49 378 0
363 -364 379 0
-363 -364 -379 0
363 364 -379 0
-363 364 379 0
365 -366 380 0
-365 -366 -380 0
365 366 -380 0
-365 366 380 0
367 -368 381 0
-367 -368 -381 0
367 368 -381 0
-367 368 381 0
369 -370 382 0
-369 -370 -382 0
369 370 -382 0
-369 370 382 0
371 -372 383 0
-371 -372 -383 0
371 372 -383 0
-371 372 383 0
373 -374 384 0
-373 -374 -384 0
373 374 -384 0
-373 374 384 0
375 -376 385 0
-375 -376 -385 0
375 376 -385 0
-375 376 385 0
377 -378 386 0
-377 -378 -386 0
377 378 -386 0
-377 378 386 0
379 -380 387 0
-379 -380 -387 0
379 380 -387 0
-379 380 387 0
381 -382 388 0
-381 -382 -388 0
381 382 -388 0
-381 382 388 0
383 -384 389 0
-383 -384 -389 0
383 384 -389 0
-383 384 389 0
385 -386 390 0
-385 -386 -390 0
385 386 -390 0
-385 386 390 0
387 -388 391 0
-387 -388 -391 0
387 388 -391 0
-387 388 391 0
389 -390 392 0
-389 -390 -392 0
389 390 -392 0
-389 390 392 0
391 392 0
-391 -392 0
-1 -2 393 0
1 -2 -393 0
-1 2 -393 0
1 2 393 0
4 5 394 0
-4 5 -394 0
4 -5 -394 0
-4 -5 394 0
-12 13 395 0
12 13 -395 0
-12 -13 -395 0
12 -13 395 0
15 -16 396 0
-15 -16 -396 0
15 16 -396 0
-15 16 396 0
17 -19 397 0
-17 -19 -397 0
17 19 -397 0
-17 19 397 0
-20 23 398 0
20 23 -398 0
-20 -23 -398 0
20 -23 398 0
25 -29 399 0
-25 -29 -399 0
25 29 -399 0
-25 29 399 0
-31 -32 400 0
31 -32 -400 0
-31 32 -400 0
31 32 400 0
34 -36 401 0
-34 -36 -401 0
34 36 -401 0
-34 36 401 0
37 -39 402 0
-37 -39 -402 0
37 39 -402 0
-37 39 402 0
41 44 403 0
-41 44 -403 0
41 -44 -403 0
-41 -44 403 0
49 50 404 0
-49 50 -404 0
49 -50 -404 0
-49 -50 404 0
393 -394 405 0
-393 -394 -405 0
393 394 -405 0
-393 394 405 0
395 -396 406 0
-395 -396 -406 0
395 396 -406 0
-395 396 406 0
397 -398 407 0
-397 -398 -407 0
397 398 -407 0
-397 398 407 0
399 -400 408 0
-399 -400 -408 0
399 400 -408 0
-399 400 408 0
401 -402 409 0
-401 -402 -409 0
401 402 -409 0
-401 402 409 0
403 -404 410 0
-403 -404 -410 0
403 404 -410 0
-403 404 410 0
405 -406 411 0
-405 -406 -411 0
405 406 -411 0
-405 406 411 0
407 -408 412 0
-407 -408 -412 0
407 408 -412 0
-407 408 412 0
409 -410 413 0
-409 -410 -413 0
409 410 -413 0
-409 410 413 0
-411 -412 413 0
411 -412 -413 0
-411 412 -413 0
411 412 413 0
1 2 414 0
-1 2 -414 0
1 -2 -414 0
-1 -2 414 0
-3 -4 415 0
3 -4 -415 0
-3 4 -415 0
3 4 415 0
-6 -9 416 0
6 -9 -416 0
-6 9 -416 0
6 9 416 0
-14 -15 417 0
14 -15 -417 0
-14 15 -417 0
14 15 417 0
17 18 418 0
-17 18 -418 0
17 -18 -418 0
-17 -18 418 0
-19 -20 419 0
19 -20 -419 0
-19 20 -419 0
19 20 419 0
-23 -24 420 0
23 -24 -420 0
-23 24 -420 0
23 24 420 0
28 -29 421 0
-28 -29 -421 0
28 29 -421 0
-28 29 421 0
30 -31 422 0
-30 -31 -422 0
30 31 -422 0
-30 31 422 0
35 -36 423 0
-35 -36 -423 0
35 36 -423 0
-35 36 423 0
-37 39 424 0
37 39 -424 0
-37 -39 -424 0
37 -39 424 0
-40 41 425 0
40 41 -425 0
-40 -41 -425 0
40 -41 425 0
42 -43 426 0
-42 -43 -426 0
42 43 -426 0
-42 43 426 0
-45 46 427 0
45 46 -427 0
-45 -46 -427 0
45 -46 427 0
-48 49 428 0
48 49 -428 0
-48 -49 -428 0
48 -49 428 0
413 -414 429 0
-413 -414 -429 0
413 414 -429 0
-413 414 429 0
415 -416 430 0
-415 -416 -430 0
415 416 -430 0
-415 416 430 0
417 -418 431 0
-417 -418 -431 0
417 418 -431 0
-417 418 431 0
419 -420 432 0
-419 -420 -432 0
419 420 -432 0
-419 420 432 0
421 -422 433 0
-421 -422 -433 0
421 422 -433 0
-421 422 433 0
423 -424 434 0
-423 -424 -434 0
423 424 -434 0
-423 424 434 0
425 -426 435 0
-425 -426 -435 0
425 426 -435 0
-425 426 435 0
427 -428 436 0
-427 -428 -436 0
427 428 -436 0
-427 428 436 0
429 -430 437 0
-429 -430 -437 0
429 430 -437 0
-429 430 437 0
431 -432 438 0
-431 -432 -438 0
431 432 -438 0
-431 432 438 0
433 -434 439 0
-433 -434 -439 0
433 434 -439 0
-433 434 439 0
435 -436 440 0
-435 -436 -440 0
435 436 -440 0
-435 436 440 0
437 -438 441 0
-437 -438 -441 0
437 438 -441 0
-437 438 441 0
439 -440 442 0
-439 -440 -442 0
439 440 -442 0
-439 440 442 0
441 442 0
-441 -442 0
1 -2 443 0
-1 -2 -443 0
1 2 -443 0
-1 2 443 0
3 4 444 0
-3 4 -444 0
3 -4 -444 0
-3 -4 444 0
8 9 445 0
-8 9 -445 0
8 -9 -445 0
-8 -9 445 0
-11 14 446 0
11 14 -446 0
-11 -14 -446 0
11 -14 446 0
15 -19 447 0
-15 -19 -447 0
15 19 -447 0
-15 19 447 0
25 -26 448 0
-25 -26 -448 0
25 26 -448 0
-25 26 448 0
-30 -35 449 0
30 -35 -449 0
-30 35 -449 0
30 35 449 0
38 39 450 0
-38 39 -450 0
38 -39 -450 0
-38 -39 450 0
41 42 451 0
-41 42 -451 0
41 -42 -451 0
-41 -42 451 0
44 -46 452 0
-44 -46 -452 0
44 46 -452 0
-44 46 452 0
442 -443 453 0
-442 -443 -453 0
442 443 -453 0
-442 443 453 0
444 -445 454 0
-444 -445 -454 0
444 445 -454 0
-444 445 454 0
446 -447 455 0
-446 -447 -455 0
446 447 -455 0
-446 447 455 0
448 -449 456 0
-448 -449 -456 0
448 449 -456 0
-448 449 456 0
450 -451 457 0
-450 -451 -457 0
450 451 -457 0
-450 451 457 0
452 -453 458 0
-452 -453 -458 0
452 453 -458 0
-452 453 458 0
454 -455 459 0
-454 -455 -459 0
454 455 -459 0
-454 455 459 0
456 -457 460 0
-456 -457 -460 0
456 457 -460 0
-456 457 460 0
-458 -459 460 0
458 -459 -460 0
-458 459 -460 0
458 459 460 0
-2 -3 461 0
2 -3 -461 0
-2 3 -461 0
2 3 461 0
-5 6 462 0
5 6 -462 0
-5 -6 -462 0
5 -6 462 0
-7 9 463 0
7 9 -463 0
-7 -9 -463 0
7 -9 463 0
10 11 464 0
-10 11 -464 0
10 -11 -464 0
-10 -11 464 0
13 -14 465 0
-13 -14 -465 0
13 14 -465 0
-13 14 465 0
15 16 466 0
-15 16 -466 0
15 -16 -466 0
-15 -16 466 0
18 -20 467 0
-18 -20 -467 0
18 20 -467 0
-18 20 467 0
22 -24 468 0
-22 -24 -468 0
22 24 -468 0
-22 24 468 0
25 -27 469 0
-25 -27 -469 0
25 27 -469 0
-25 27 469 0
-29 -34 470 0
29 -34 -470 0
-29 34 -470 0
29 34 470 0
36 37 471 0
-36 37 -471 0
36 -37 -471 0
-36 -37 471 0
-38 -40 472 0
38 -40 -472 0
-38 40 -472 0
38 40 472 0
-42 43 473 0
42 43 -473 0
-42 -43 -473 0
42 -43 473 0
460 -461 474 0
-460 -461 -474 0
460 461 -474 0
-460 461 474 0
462 -463 475 0
-462 -463 -475 0
462 463 -475 0
-462 463 475 0
464 -465 476 0
-464 -465 -476 0
464 465 -476 0
-464 465 476 0
466 -467 477 0
-466 -467 -477 0
466 467 -477 0
-466 467 477 0
468 -469 478 0
-468 -469 -478 0
468 469 -478 0
-468 469 478 0
470 -471 479 0
-470 -471 -479 0
470 471 -479 0
-470 471 479 0
472 -473 480 0
-472 -473 -480 0
472 473 -480 0
-472 473 480 0
474 -475 481 0
-474 -475 -481 0
474 475 -481 0
-474 475 481 0
476 -477 482 0
-476 -477 -482 0
476 477 -482 0
-476 477 482 0
478 -479 483 0
-478 -479 -483 0
478 479 -483 0
-478 479 483 0
480 -481 484 0
-480 -481 -484 0
480 481 -484 0
-480 481 484 0
482 -483 485 0
-482 -483 -485 0
482 483 -485 0
-482 483 485 0
484 485 0
-484 -485 0
2 -3 486 0
-2 -3 -486 0
2 3 -486 0
-2 3 486 0
7 9 487 0
-7 9 -487 0
7 -9 -487 0
-7 -9 487 0
-10 -11 488 0
10 -11 -488 0
-10 11 -488 0
10 11 488 0
-14 -17 489 0
14 -17 -489 0
-14 17 -489 0
14 17 489 0
18 -19 490 0
-18 -19 -490 0
18 19 -490 0
-18 19 490 0
20 -25 491 0
-20 -25 -491 0
20 25 -491 0
-20 25 491 0
27 -28 492 0
-27 -28 -492 0
27 28 -492 0
-27 28 492 0
-32 34 493 0
32 34 -493 0
-32 -34 -493 0
32 -34 493 0
-36 38 494 0
36 38 -494 0
-36 -38 -494 0
36 -38 494 0
-40 43 495 0
40 43 -495 0
-40 -43 -495 0
40 -43 495 0
44 -45 496 0
-44 -45 -496 0
44 45 -496 0
-44 45 496 0
485 -486 497 0
-485 -486 -497 0
485 486 -497 0
-485 486 497 0
487 -488 498 0
-487 -488 -498 0
487 488 -498 0
-487 488 498 0
489 -490 499 0
-489 -490 -499 0
489 490 -499 0
-489 490 499 0
491 -492 500 0
-491 -492 -500 0
491 492 -500 0
-491 492 500 0
493 -494 501 0
-493 -494 -501 0
493 494 -501 0
-493 494 501 0
495 -496 502 0
-495 -496 -502 0
495 496 -502 0
-495 496 502 0
497 -498 503 0
-497 -498 -503 0
497 498 -503 0
-497 498 503 0
499 -500 504 0
-499 -500 -504 0
499 500 -504 0
-499 500 504 0
501 -502 505 0
-501 -502 -505 0
501 502 -505 0
-501 502 505 0
-503 -504 505 0
503 -504 -505 0
-503 504 -505 0
503 504 505 0
